c Standarized MaxSat Instance
c{
c "sha1sum": "9c4d9a5095455bfc8da84511f1f2a8b6a0514e1b",
c "nvars": 60,
c "ncls": 1000,
c "nhards": 0,
c "nhard_len_stats":
c    { "min": 0, "max": 0, "ave": 0.00,
c      "stddev": 0.00 },
c "nsofts": 1000,
c "nsoft_len_stats":
c    { "min": 2, "max": 2, "ave": 2.00,
c      "stddev": 0.00 },
c "nsoft_wts": 10,
c "soft_wt_stats":
c    { "min": 1, "max": 10, "ave": 5.55,
c      "stddev": 2.83 }
c}
c------------------------------------------------------------
c Generated after 1 tries
c Graph with 60 nodes and 500 edges, Max edges:1770
p wcnf 60 1000 5555
9 1 5 0
9 -1 -5 0
4 1 6 0
4 -1 -6 0
8 1 20 0
8 -1 -20 0
8 1 29 0
8 -1 -29 0
10 1 30 0
10 -1 -30 0
2 1 32 0
2 -1 -32 0
4 1 33 0
4 -1 -33 0
8 1 35 0
8 -1 -35 0
3 1 41 0
3 -1 -41 0
6 1 49 0
6 -1 -49 0
5 1 50 0
5 -1 -50 0
7 1 58 0
7 -1 -58 0
4 1 59 0
4 -1 -59 0
6 2 3 0
6 -2 -3 0
10 2 4 0
10 -2 -4 0
10 2 6 0
10 -2 -6 0
7 2 8 0
7 -2 -8 0
8 2 11 0
8 -2 -11 0
2 2 13 0
2 -2 -13 0
7 2 20 0
7 -2 -20 0
1 2 23 0
1 -2 -23 0
3 2 26 0
3 -2 -26 0
2 2 37 0
2 -2 -37 0
9 2 39 0
9 -2 -39 0
2 2 40 0
2 -2 -40 0
5 2 41 0
5 -2 -41 0
2 2 44 0
2 -2 -44 0
2 2 45 0
2 -2 -45 0
10 2 46 0
10 -2 -46 0
3 2 50 0
3 -2 -50 0
6 2 52 0
6 -2 -52 0
9 2 53 0
9 -2 -53 0
7 2 60 0
7 -2 -60 0
3 3 6 0
3 -3 -6 0
7 3 13 0
7 -3 -13 0
6 3 14 0
6 -3 -14 0
5 3 18 0
5 -3 -18 0
10 3 20 0
10 -3 -20 0
3 3 21 0
3 -3 -21 0
8 3 22 0
8 -3 -22 0
6 3 25 0
6 -3 -25 0
8 3 28 0
8 -3 -28 0
5 3 32 0
5 -3 -32 0
9 3 38 0
9 -3 -38 0
3 3 40 0
3 -3 -40 0
4 3 41 0
4 -3 -41 0
9 3 44 0
9 -3 -44 0
10 3 49 0
10 -3 -49 0
1 4 8 0
1 -4 -8 0
10 4 10 0
10 -4 -10 0
6 4 11 0
6 -4 -11 0
1 4 14 0
1 -4 -14 0
2 4 15 0
2 -4 -15 0
7 4 20 0
7 -4 -20 0
9 4 26 0
9 -4 -26 0
4 4 27 0
4 -4 -27 0
1 4 39 0
1 -4 -39 0
1 4 40 0
1 -4 -40 0
5 4 41 0
5 -4 -41 0
1 4 42 0
1 -4 -42 0
3 4 43 0
3 -4 -43 0
10 4 46 0
10 -4 -46 0
10 4 47 0
10 -4 -47 0
9 4 49 0
9 -4 -49 0
3 4 51 0
3 -4 -51 0
6 5 6 0
6 -5 -6 0
4 5 8 0
4 -5 -8 0
8 5 13 0
8 -5 -13 0
6 5 14 0
6 -5 -14 0
7 5 24 0
7 -5 -24 0
6 5 43 0
6 -5 -43 0
1 5 45 0
1 -5 -45 0
5 5 48 0
5 -5 -48 0
10 5 50 0
10 -5 -50 0
10 5 52 0
10 -5 -52 0
8 5 54 0
8 -5 -54 0
3 5 58 0
3 -5 -58 0
8 5 59 0
8 -5 -59 0
7 5 60 0
7 -5 -60 0
4 6 9 0
4 -6 -9 0
7 6 14 0
7 -6 -14 0
2 6 15 0
2 -6 -15 0
5 6 16 0
5 -6 -16 0
9 6 21 0
9 -6 -21 0
9 6 31 0
9 -6 -31 0
4 6 32 0
4 -6 -32 0
3 6 34 0
3 -6 -34 0
9 6 36 0
9 -6 -36 0
4 6 37 0
4 -6 -37 0
7 6 40 0
7 -6 -40 0
10 6 41 0
10 -6 -41 0
6 6 52 0
6 -6 -52 0
7 7 8 0
7 -7 -8 0
9 7 14 0
9 -7 -14 0
5 7 19 0
5 -7 -19 0
10 7 21 0
10 -7 -21 0
4 7 24 0
4 -7 -24 0
9 7 25 0
9 -7 -25 0
7 7 27 0
7 -7 -27 0
10 7 28 0
10 -7 -28 0
5 7 29 0
5 -7 -29 0
3 7 33 0
3 -7 -33 0
10 7 37 0
10 -7 -37 0
10 7 38 0
10 -7 -38 0
2 7 39 0
2 -7 -39 0
9 7 42 0
9 -7 -42 0
7 7 44 0
7 -7 -44 0
5 7 46 0
5 -7 -46 0
7 7 48 0
7 -7 -48 0
3 7 51 0
3 -7 -51 0
8 8 12 0
8 -8 -12 0
4 8 20 0
4 -8 -20 0
5 8 23 0
5 -8 -23 0
3 8 24 0
3 -8 -24 0
2 8 26 0
2 -8 -26 0
3 8 36 0
3 -8 -36 0
6 8 46 0
6 -8 -46 0
5 8 54 0
5 -8 -54 0
2 8 56 0
2 -8 -56 0
10 8 60 0
10 -8 -60 0
2 9 15 0
2 -9 -15 0
2 9 20 0
2 -9 -20 0
5 9 22 0
5 -9 -22 0
8 9 25 0
8 -9 -25 0
10 9 26 0
10 -9 -26 0
10 9 29 0
10 -9 -29 0
7 9 32 0
7 -9 -32 0
4 9 38 0
4 -9 -38 0
8 9 43 0
8 -9 -43 0
4 9 44 0
4 -9 -44 0
3 9 49 0
3 -9 -49 0
3 9 57 0
3 -9 -57 0
6 10 11 0
6 -10 -11 0
3 10 17 0
3 -10 -17 0
2 10 18 0
2 -10 -18 0
8 10 19 0
8 -10 -19 0
2 10 21 0
2 -10 -21 0
8 10 23 0
8 -10 -23 0
2 10 31 0
2 -10 -31 0
8 10 33 0
8 -10 -33 0
1 10 35 0
1 -10 -35 0
10 10 38 0
10 -10 -38 0
1 10 47 0
1 -10 -47 0
6 10 51 0
6 -10 -51 0
2 10 54 0
2 -10 -54 0
3 10 55 0
3 -10 -55 0
8 11 12 0
8 -11 -12 0
8 11 14 0
8 -11 -14 0
7 11 15 0
7 -11 -15 0
10 11 27 0
10 -11 -27 0
7 11 28 0
7 -11 -28 0
8 11 38 0
8 -11 -38 0
1 11 39 0
1 -11 -39 0
2 11 48 0
2 -11 -48 0
6 11 51 0
6 -11 -51 0
1 11 56 0
1 -11 -56 0
1 11 58 0
1 -11 -58 0
3 12 14 0
3 -12 -14 0
5 12 15 0
5 -12 -15 0
9 12 21 0
9 -12 -21 0
6 12 26 0
6 -12 -26 0
8 12 32 0
8 -12 -32 0
1 12 36 0
1 -12 -36 0
2 12 37 0
2 -12 -37 0
10 12 49 0
10 -12 -49 0
3 12 51 0
3 -12 -51 0
9 12 53 0
9 -12 -53 0
2 12 54 0
2 -12 -54 0
10 13 24 0
10 -13 -24 0
1 13 26 0
1 -13 -26 0
9 13 34 0
9 -13 -34 0
1 13 36 0
1 -13 -36 0
1 13 40 0
1 -13 -40 0
10 13 41 0
10 -13 -41 0
6 13 42 0
6 -13 -42 0
2 13 48 0
2 -13 -48 0
2 13 49 0
2 -13 -49 0
4 13 50 0
4 -13 -50 0
10 13 56 0
10 -13 -56 0
9 13 59 0
9 -13 -59 0
4 14 15 0
4 -14 -15 0
6 14 19 0
6 -14 -19 0
6 14 21 0
6 -14 -21 0
5 14 32 0
5 -14 -32 0
7 14 33 0
7 -14 -33 0
1 14 35 0
1 -14 -35 0
6 14 39 0
6 -14 -39 0
8 14 40 0
8 -14 -40 0
4 14 44 0
4 -14 -44 0
10 14 45 0
10 -14 -45 0
6 14 48 0
6 -14 -48 0
9 14 52 0
9 -14 -52 0
8 14 53 0
8 -14 -53 0
7 14 54 0
7 -14 -54 0
1 14 55 0
1 -14 -55 0
8 14 56 0
8 -14 -56 0
9 14 57 0
9 -14 -57 0
10 15 19 0
10 -15 -19 0
9 15 29 0
9 -15 -29 0
9 15 32 0
9 -15 -32 0
10 15 37 0
10 -15 -37 0
8 15 38 0
8 -15 -38 0
10 15 44 0
10 -15 -44 0
10 15 54 0
10 -15 -54 0
7 16 17 0
7 -16 -17 0
5 16 23 0
5 -16 -23 0
2 16 29 0
2 -16 -29 0
9 16 33 0
9 -16 -33 0
9 16 35 0
9 -16 -35 0
1 16 40 0
1 -16 -40 0
7 16 44 0
7 -16 -44 0
3 16 48 0
3 -16 -48 0
7 16 53 0
7 -16 -53 0
3 16 60 0
3 -16 -60 0
8 17 18 0
8 -17 -18 0
4 17 19 0
4 -17 -19 0
4 17 25 0
4 -17 -25 0
3 17 26 0
3 -17 -26 0
1 17 29 0
1 -17 -29 0
7 17 32 0
7 -17 -32 0
3 17 36 0
3 -17 -36 0
7 17 38 0
7 -17 -38 0
6 17 43 0
6 -17 -43 0
10 17 47 0
10 -17 -47 0
3 17 50 0
3 -17 -50 0
6 17 51 0
6 -17 -51 0
8 17 54 0
8 -17 -54 0
2 17 55 0
2 -17 -55 0
5 18 19 0
5 -18 -19 0
6 18 22 0
6 -18 -22 0
10 18 26 0
10 -18 -26 0
5 18 29 0
5 -18 -29 0
4 18 32 0
4 -18 -32 0
9 18 33 0
9 -18 -33 0
5 18 34 0
5 -18 -34 0
1 18 42 0
1 -18 -42 0
4 18 49 0
4 -18 -49 0
6 18 58 0
6 -18 -58 0
9 18 60 0
9 -18 -60 0
3 19 20 0
3 -19 -20 0
7 19 24 0
7 -19 -24 0
5 19 28 0
5 -19 -28 0
5 19 29 0
5 -19 -29 0
4 19 32 0
4 -19 -32 0
8 19 38 0
8 -19 -38 0
2 19 40 0
2 -19 -40 0
7 19 41 0
7 -19 -41 0
1 19 45 0
1 -19 -45 0
5 19 46 0
5 -19 -46 0
7 19 51 0
7 -19 -51 0
7 19 54 0
7 -19 -54 0
7 19 55 0
7 -19 -55 0
4 19 56 0
4 -19 -56 0
2 19 57 0
2 -19 -57 0
7 19 58 0
7 -19 -58 0
7 20 23 0
7 -20 -23 0
8 20 26 0
8 -20 -26 0
4 20 27 0
4 -20 -27 0
8 20 31 0
8 -20 -31 0
3 20 35 0
3 -20 -35 0
10 20 37 0
10 -20 -37 0
7 20 40 0
7 -20 -40 0
7 20 52 0
7 -20 -52 0
3 20 56 0
3 -20 -56 0
6 20 57 0
6 -20 -57 0
1 20 60 0
1 -20 -60 0
3 21 23 0
3 -21 -23 0
9 21 25 0
9 -21 -25 0
7 21 30 0
7 -21 -30 0
1 21 31 0
1 -21 -31 0
2 21 44 0
2 -21 -44 0
4 21 47 0
4 -21 -47 0
6 21 50 0
6 -21 -50 0
6 21 51 0
6 -21 -51 0
7 21 59 0
7 -21 -59 0
3 22 26 0
3 -22 -26 0
8 22 28 0
8 -22 -28 0
3 22 37 0
3 -22 -37 0
4 22 39 0
4 -22 -39 0
2 22 41 0
2 -22 -41 0
10 22 43 0
10 -22 -43 0
1 22 45 0
1 -22 -45 0
9 22 46 0
9 -22 -46 0
4 22 47 0
4 -22 -47 0
2 22 48 0
2 -22 -48 0
5 22 51 0
5 -22 -51 0
10 22 53 0
10 -22 -53 0
10 22 57 0
10 -22 -57 0
8 22 58 0
8 -22 -58 0
7 22 60 0
7 -22 -60 0
2 23 24 0
2 -23 -24 0
7 23 25 0
7 -23 -25 0
4 23 27 0
4 -23 -27 0
8 23 30 0
8 -23 -30 0
10 23 31 0
10 -23 -31 0
10 23 35 0
10 -23 -35 0
9 23 40 0
9 -23 -40 0
3 23 41 0
3 -23 -41 0
8 23 45 0
8 -23 -45 0
6 23 53 0
6 -23 -53 0
3 23 55 0
3 -23 -55 0
10 23 56 0
10 -23 -56 0
10 23 59 0
10 -23 -59 0
9 24 30 0
9 -24 -30 0
5 24 34 0
5 -24 -34 0
6 24 38 0
6 -24 -38 0
2 24 40 0
2 -24 -40 0
3 24 48 0
3 -24 -48 0
9 24 51 0
9 -24 -51 0
5 24 55 0
5 -24 -55 0
5 24 56 0
5 -24 -56 0
9 24 58 0
9 -24 -58 0
5 24 60 0
5 -24 -60 0
3 25 30 0
3 -25 -30 0
2 25 31 0
2 -25 -31 0
7 25 34 0
7 -25 -34 0
8 25 36 0
8 -25 -36 0
2 25 40 0
2 -25 -40 0
7 25 41 0
7 -25 -41 0
5 25 42 0
5 -25 -42 0
9 25 46 0
9 -25 -46 0
8 25 50 0
8 -25 -50 0
2 25 54 0
2 -25 -54 0
3 25 55 0
3 -25 -55 0
5 25 57 0
5 -25 -57 0
2 26 34 0
2 -26 -34 0
2 26 35 0
2 -26 -35 0
4 26 38 0
4 -26 -38 0
4 26 40 0
4 -26 -40 0
10 26 41 0
10 -26 -41 0
10 26 56 0
10 -26 -56 0
7 27 28 0
7 -27 -28 0
9 27 33 0
9 -27 -33 0
9 27 39 0
9 -27 -39 0
5 27 40 0
5 -27 -40 0
4 27 43 0
4 -27 -43 0
4 27 47 0
4 -27 -47 0
7 27 55 0
7 -27 -55 0
7 27 60 0
7 -27 -60 0
3 28 36 0
3 -28 -36 0
2 28 38 0
2 -28 -38 0
1 28 39 0
1 -28 -39 0
2 28 45 0
2 -28 -45 0
7 28 49 0
7 -28 -49 0
4 28 53 0
4 -28 -53 0
3 28 55 0
3 -28 -55 0
4 28 58 0
4 -28 -58 0
1 29 33 0
1 -29 -33 0
5 29 36 0
5 -29 -36 0
10 29 42 0
10 -29 -42 0
6 29 45 0
6 -29 -45 0
3 29 49 0
3 -29 -49 0
7 29 52 0
7 -29 -52 0
8 29 53 0
8 -29 -53 0
5 29 59 0
5 -29 -59 0
2 30 33 0
2 -30 -33 0
9 30 36 0
9 -30 -36 0
7 30 37 0
7 -30 -37 0
6 30 41 0
6 -30 -41 0
3 30 45 0
3 -30 -45 0
6 30 47 0
6 -30 -47 0
5 30 49 0
5 -30 -49 0
9 30 50 0
9 -30 -50 0
4 30 55 0
4 -30 -55 0
3 30 57 0
3 -30 -57 0
4 30 60 0
4 -30 -60 0
8 31 39 0
8 -31 -39 0
7 31 40 0
7 -31 -40 0
10 31 41 0
10 -31 -41 0
4 31 42 0
4 -31 -42 0
9 31 43 0
9 -31 -43 0
2 31 46 0
2 -31 -46 0
5 31 47 0
5 -31 -47 0
1 31 48 0
1 -31 -48 0
8 31 50 0
8 -31 -50 0
8 31 56 0
8 -31 -56 0
3 31 57 0
3 -31 -57 0
2 31 59 0
2 -31 -59 0
9 31 60 0
9 -31 -60 0
8 32 33 0
8 -32 -33 0
1 32 38 0
1 -32 -38 0
5 32 46 0
5 -32 -46 0
10 32 49 0
10 -32 -49 0
8 32 50 0
8 -32 -50 0
3 32 57 0
3 -32 -57 0
5 32 58 0
5 -32 -58 0
9 33 36 0
9 -33 -36 0
1 33 38 0
1 -33 -38 0
1 33 41 0
1 -33 -41 0
4 33 46 0
4 -33 -46 0
4 33 52 0
4 -33 -52 0
7 33 54 0
7 -33 -54 0
9 33 55 0
9 -33 -55 0
2 33 56 0
2 -33 -56 0
1 34 48 0
1 -34 -48 0
1 34 51 0
1 -34 -51 0
5 34 53 0
5 -34 -53 0
8 35 36 0
8 -35 -36 0
7 35 38 0
7 -35 -38 0
5 35 40 0
5 -35 -40 0
2 35 42 0
2 -35 -42 0
6 35 48 0
6 -35 -48 0
6 35 51 0
6 -35 -51 0
6 35 52 0
6 -35 -52 0
6 35 53 0
6 -35 -53 0
4 35 55 0
4 -35 -55 0
4 35 57 0
4 -35 -57 0
9 36 43 0
9 -36 -43 0
5 36 46 0
5 -36 -46 0
2 36 48 0
2 -36 -48 0
7 36 52 0
7 -36 -52 0
6 36 54 0
6 -36 -54 0
7 36 56 0
7 -36 -56 0
6 36 58 0
6 -36 -58 0
3 36 59 0
3 -36 -59 0
9 37 39 0
9 -37 -39 0
1 37 40 0
1 -37 -40 0
1 37 41 0
1 -37 -41 0
10 37 42 0
10 -37 -42 0
2 37 47 0
2 -37 -47 0
5 37 50 0
5 -37 -50 0
3 37 52 0
3 -37 -52 0
9 38 41 0
9 -38 -41 0
3 38 42 0
3 -38 -42 0
4 38 49 0
4 -38 -49 0
9 38 50 0
9 -38 -50 0
4 38 56 0
4 -38 -56 0
9 38 57 0
9 -38 -57 0
7 39 40 0
7 -39 -40 0
1 39 41 0
1 -39 -41 0
3 39 42 0
3 -39 -42 0
8 39 45 0
8 -39 -45 0
7 39 46 0
7 -39 -46 0
9 39 49 0
9 -39 -49 0
4 39 50 0
4 -39 -50 0
3 39 53 0
3 -39 -53 0
2 39 55 0
2 -39 -55 0
7 40 42 0
7 -40 -42 0
2 40 43 0
2 -40 -43 0
7 40 44 0
7 -40 -44 0
8 40 45 0
8 -40 -45 0
8 40 46 0
8 -40 -46 0
3 40 50 0
3 -40 -50 0
5 40 58 0
5 -40 -58 0
4 41 42 0
4 -41 -42 0
5 41 55 0
5 -41 -55 0
3 41 56 0
3 -41 -56 0
4 41 57 0
4 -41 -57 0
6 42 48 0
6 -42 -48 0
2 42 50 0
2 -42 -50 0
6 42 51 0
6 -42 -51 0
1 42 58 0
1 -42 -58 0
4 43 44 0
4 -43 -44 0
4 43 46 0
4 -43 -46 0
4 43 50 0
4 -43 -50 0
8 43 54 0
8 -43 -54 0
3 43 58 0
3 -43 -58 0
7 44 45 0
7 -44 -45 0
6 44 47 0
6 -44 -47 0
10 44 48 0
10 -44 -48 0
7 44 49 0
7 -44 -49 0
9 44 50 0
9 -44 -50 0
7 44 59 0
7 -44 -59 0
4 44 60 0
4 -44 -60 0
7 45 46 0
7 -45 -46 0
1 45 52 0
1 -45 -52 0
6 46 47 0
6 -46 -47 0
9 46 48 0
9 -46 -48 0
7 46 49 0
7 -46 -49 0
7 46 51 0
7 -46 -51 0
6 46 60 0
6 -46 -60 0
5 47 52 0
5 -47 -52 0
4 47 53 0
4 -47 -53 0
8 47 54 0
8 -47 -54 0
9 48 50 0
9 -48 -50 0
7 48 54 0
7 -48 -54 0
2 48 55 0
2 -48 -55 0
1 48 58 0
1 -48 -58 0
1 48 60 0
1 -48 -60 0
7 49 50 0
7 -49 -50 0
2 49 51 0
2 -49 -51 0
7 49 52 0
7 -49 -52 0
8 49 58 0
8 -49 -58 0
6 49 60 0
6 -49 -60 0
1 50 53 0
1 -50 -53 0
1 51 55 0
1 -51 -55 0
4 51 59 0
4 -51 -59 0
3 51 60 0
3 -51 -60 0
7 52 53 0
7 -52 -53 0
9 52 56 0
9 -52 -56 0
2 52 59 0
2 -52 -59 0
4 53 56 0
4 -53 -56 0
7 54 56 0
7 -54 -56 0
9 54 57 0
9 -54 -57 0
7 54 59 0
7 -54 -59 0
4 54 60 0
4 -54 -60 0
9 55 57 0
9 -55 -57 0
2 56 59 0
2 -56 -59 0
2 57 58 0
2 -57 -58 0
6 59 60 0
6 -59 -60 0
